17	4	3
14	13	12	13	26	25	36	
0	0	0	0	0	4	10	3	4	3	5	3	2	3	4
9	0	6	6	0	10	8	6	6	5	6	3	5	7	17
6	7	3	1	0	4	5	8	9	3	7	3	8	15	17
10	0	0	9	1	7	5	9	7	3	3	3	6	12	17
5	5	0	0	5	1	9	4	5	3	3	2	9	11
150	4	7	0	8	2	7	2	4	10	4	1	17
200	9	8	8	3	8	10	2	4	5	6	2	10	17
75	0	0	0	9	9	8	1	6	7	3	1	17
200	0	0	0	3	3	4	8	1	10	10	2	13	17
175	0	0	9	3	4	1	9	7	6	2	2	14	17
50	5	3	5	6	10	7	8	2	10	8	1	17
100	0	0	6	0	6	8	7	7	2	1	2	16	17
7	4	9	0	0	2	10	9	2	6	6	1	17
10	0	4	8	0	5	9	9	2	10	9	1	17
8	0	5	6	0	2	3	10	10	10	5	1	17
6	3	0	7	6	1	9	2	9	10	2	2	17	17
0	0	0	0	0	6	6	9	2	2	10	0
